nN = 5;
nR = 15;
nH = 1;

a = [[12, 9, 15, 23, 13, 19, 17, 6, 17, 19, 25, 8, 20, 15, 21], [9, 11, 21, 5, 9, 9, 21, 9, 20, 16, 22, 23, 21, 18, 22], [5, 15, 5, 13, 10, 9, 8, 24, 11, 9, 19, 6, 19, 19, 17], [22, 7, 23, 25, 19, 23, 8, 21, 13, 17, 14, 15, 14, 8, 18], [23, 8, 9, 9, 14, 7, 13, 21, 16, 15, 11, 14, 8, 23, 13]];
c = [[[0, 0, 0, 0, 0, 0, 0, 0, 0, 0, 0, 0, 0, 0, 0], [43, 44, 44, 30, 44, 44, 45, 35, 47, 45, 35, 38, 37, 42, 31], [40, 49, 48, 41, 45, 48, 32, 30, 46, 43, 48, 35, 35, 44, 33], [33, 50, 30, 37, 40, 35, 30, 43, 46, 38, 31, 41, 44, 39, 40], [37, 34, 34, 38, 31, 35, 31, 49, 32, 48, 39, 39, 48, 41, 37]], [[0, 0, 0, 0, 0, 0, 0, 0, 0, 0, 0, 0, 0, 0, 0], [0, 0, 0, 0, 0, 0, 0, 0, 0, 0, 0, 0, 0, 0, 0], [36, 50, 49, 40, 38, 50, 43, 40, 37, 42, 32, 45, 47, 50, 45], [44, 43, 31, 37, 45, 33, 41, 40, 46, 40, 48, 45, 47, 34, 44], [37, 37, 44, 30, 34, 37, 45, 31, 32, 35, 30, 48, 34, 43, 35]], [[0, 0, 0, 0, 0, 0, 0, 0, 0, 0, 0, 0, 0, 0, 0], [0, 0, 0, 0, 0, 0, 0, 0, 0, 0, 0, 0, 0, 0, 0], [0, 0, 0, 0, 0, 0, 0, 0, 0, 0, 0, 0, 0, 0, 0], [42, 42, 39, 41, 38, 44, 34, 44, 36, 50, 45, 42, 43, 31, 43], [48, 49, 45, 36, 38, 42, 35, 31, 33, 41, 31, 47, 38, 34, 42]], [[0, 0, 0, 0, 0, 0, 0, 0, 0, 0, 0, 0, 0, 0, 0], [0, 0, 0, 0, 0, 0, 0, 0, 0, 0, 0, 0, 0, 0, 0], [0, 0, 0, 0, 0, 0, 0, 0, 0, 0, 0, 0, 0, 0, 0], [0, 0, 0, 0, 0, 0, 0, 0, 0, 0, 0, 0, 0, 0, 0], [41, 36, 33, 48, 50, 34, 44, 31, 36, 36, 48, 31, 40, 42, 33]], [[0, 0, 0, 0, 0, 0, 0, 0, 0, 0, 0, 0, 0, 0, 0], [0, 0, 0, 0, 0, 0, 0, 0, 0, 0, 0, 0, 0, 0, 0], [0, 0, 0, 0, 0, 0, 0, 0, 0, 0, 0, 0, 0, 0, 0], [0, 0, 0, 0, 0, 0, 0, 0, 0, 0, 0, 0, 0, 0, 0], [0, 0, 0, 0, 0, 0, 0, 0, 0, 0, 0, 0, 0, 0, 0]]];
Q = [[41], [36], [35], [37], [36]];

q = [[[20], [16], [21], [23], [18], [6], [14], [13], [17], [16], [15], [23], [24], [11], [19]], [[23], [13], [9], [5], [23], [18], [24], [10], [7], [13], [9], [18], [11], [21], [18]], [[14], [11], [12], [17], [10], [6], [20], [21], [21], [8], [18], [20], [21], [8], [6]], [[7], [11], [11], [22], [25], [5], [6], [12], [23], [9], [24], [21], [24], [9], [22]], [[14], [14], [16], [17], [15], [7], [10], [18], [16], [16], [5], [20], [23], [9], [20]]];
p = [0.85, 0.83, 0.96, 0.13, 0.01, 0.28, 0.47, 0.21, 0.13, 0.84, 0.03, 0.66, 0.49, 0.52, 0.63];
